TCS_Benchmarks/redos_fix/snort1_output_distinct_2780_2779_16_0.smt2
(set-logic QF_S)
(declare-const x String)
(assert (str.in.re x (re.inter  (re.++ (re.* (re.comp  (str.to.re "\u{3e}")) )  (re.++ (re.range "\u{30}" "\u{39}") (re.++ (re.range "\u{30}" "\u{39}") (re.++ (re.range "\u{30}" "\u{39}") (re.++ (re.range "\u{30}" "\u{39}") (re.++ (re.range "\u{30}" "\u{39}") (re.++ (re.range "\u{30}" "\u{39}") (re.range "\u{30}" "\u{39}"))))))))  (re.++ (re.* (re.comp  (str.to.re "\u{3e}")) ) (re.++  (re.++  (str.to.re "\u{2f}") (re.++  (re.union  (str.to.re "\u{6e}")  (str.to.re "\u{4e}")) (re.+ (re.union (re.range "\u{09}" "\u{0d}") (re.range "\u{20}" "\u{20}") (re.range "\u{85}" "\u{85}") (re.range "\u{a0}" "\u{a0}")) )))  (re.++ (re.range "\u{30}" "\u{39}") (re.++ (re.range "\u{30}" "\u{39}") (re.++ (re.range "\u{30}" "\u{39}") (re.++ (re.range "\u{30}" "\u{39}") (re.++ (re.range "\u{30}" "\u{39}") (re.++ (re.range "\u{30}" "\u{39}") (re.range "\u{30}" "\u{39}"))))))))) )))
(check-sat)
(get-model)