TCS_Benchmarks/redos_fix/snort1_output_distinct_2780_2779_16_0.txt
([^>]*)(\d{7})
([^>]*)(\/[nN]\s+)(\d{7})